(set-logic QF_NRA)
(set-info :source |Benchmarks generated from hycomp (https://es-static.fbk.eu/tools/hycomp/). BMC instances of non-linear hybrid automata taken from: Alessandro Cimatti, Sergio Mover, Stefano Tonetta, A quantifier-free SMT encoding of non-linear hybrid automata, FMCAD 2012 and Alessandro Cimatti, Sergio Mover, Stefano Tonetta, Quantier-free encoding of invariants for Hybrid Systems, Formal Methods in System Design. This instance solves a BMC problem of depth 3 and uses the quantifier free encoding with lemmas encoding. Contacts: Sergio Mover (mover@fbk.eu), Stefano Tonetta (tonettas@fbk.eu), Alessandro Cimatti (cimatti@fbk.eu).|)
(set-info :smt-lib-version 2.0)
(set-info :category "industrial")
(set-info :status unsat)
;; MathSAT API call trace
;; generated on Mon Mar 19 10:46:28 2012
(declare-fun b.speed_y__AT2 () Real)
(declare-fun b.event_is_timed__AT3 () Bool)
(declare-fun b.y__AT0 () Real)
(declare-fun b.counter.0__AT0 () Bool)
(declare-fun b.EVENT.0__AT0 () Bool)
(declare-fun b.counter.3__AT0 () Bool)
(declare-fun b.counter.1__AT0 () Bool)
(declare-fun b.event_is_timed__AT1 () Bool)
(declare-fun b.bool_atom__AT1 () Bool)
(declare-fun b.y__AT3 () Real)
(declare-fun b.counter.0__AT3 () Bool)
(declare-fun b.counter.1__AT3 () Bool)
(declare-fun b.x__AT3 () Real)
(declare-fun b.counter.2__AT3 () Bool)
(declare-fun b.EVENT.1__AT3 () Bool)
(declare-fun b.g__AT0 () Real)
(declare-fun b.counter.3__AT3 () Bool)
(declare-fun b.speed_y__AT0 () Real)
(declare-fun b.bool_atom__AT3 () Bool)
(declare-fun b.x__AT1 () Real)
(declare-fun b.y__AT1 () Real)
(declare-fun b.counter.2__AT0 () Bool)
(declare-fun b.counter.0__AT1 () Bool)
(declare-fun b.speed_y__AT3 () Real)
(declare-fun b.counter.1__AT1 () Bool)
(declare-fun b.event_is_timed__AT2 () Bool)
(declare-fun b.counter.2__AT1 () Bool)
(declare-fun b.event_is_timed__AT0 () Bool)
(declare-fun b.time__AT3 () Real)
(declare-fun b.counter.3__AT1 () Bool)
(declare-fun b.bool_atom__AT0 () Bool)
(declare-fun b.delta__AT3 () Real)
(declare-fun b.x__AT0 () Real)
(declare-fun b.bool_atom__AT2 () Bool)
(declare-fun b.EVENT.0__AT3 () Bool)
(declare-fun b.y__AT2 () Real)
(declare-fun b.counter.0__AT2 () Bool)
(declare-fun b.time__AT2 () Real)
(declare-fun b.delta__AT1 () Real)
(declare-fun b.counter.1__AT2 () Bool)
(declare-fun b.speed_y__AT1 () Real)
(declare-fun b.time__AT1 () Real)
(declare-fun b.delta__AT2 () Real)
(declare-fun b.EVENT.0__AT1 () Bool)
(declare-fun b.counter.2__AT2 () Bool)
(declare-fun b.x__AT2 () Real)
(declare-fun b.time__AT0 () Real)
(declare-fun b.EVENT.0__AT2 () Bool)
(declare-fun b.EVENT.1__AT1 () Bool)
(declare-fun b.counter.3__AT2 () Bool)
(declare-fun b.delta__AT0 () Real)
(declare-fun b.EVENT.1__AT2 () Bool)
(declare-fun b.EVENT.1__AT0 () Bool)
(assert (let ((.def_72 (* (- 1.0) b.g__AT0)))
(let ((.def_75 (* (/ 1 2) .def_72)))
(let ((.def_87 (* 2.0 .def_75)))
(let ((.def_131 (* (- 1.0) .def_87)))
(let ((.def_832 (* .def_131 b.delta__AT3)))
(let ((.def_835 (<= .def_832 b.speed_y__AT3)))
(let ((.def_842 (not .def_835)))
(let ((.def_795 (<= 0.0 b.speed_y__AT3)))
(let ((.def_843 (or .def_795 .def_842)))
(let ((.def_833 (<= b.speed_y__AT3 .def_832)))
(let ((.def_809 (<= b.speed_y__AT3 0.0 )))
(let ((.def_810 (not .def_809)))
(let ((.def_841 (or .def_810 .def_833)))
(let ((.def_844 (and .def_841 .def_843)))
(let ((.def_122 (<= b.g__AT0 0.0 )))
(let ((.def_845 (or .def_122 .def_844)))
(let ((.def_837 (not .def_833)))
(let ((.def_838 (or .def_809 .def_837)))
(let ((.def_796 (not .def_795)))
(let ((.def_836 (or .def_796 .def_835)))
(let ((.def_839 (and .def_836 .def_838)))
(let ((.def_127 (<= 0.0 b.g__AT0)))
(let ((.def_840 (or .def_127 .def_839)))
(let ((.def_846 (and .def_840 .def_845)))
(let ((.def_834 (and .def_809 .def_833)))
(let ((.def_847 (and .def_834 .def_846)))
(let ((.def_791 (* .def_87 b.delta__AT3)))
(let ((.def_792 (+ b.speed_y__AT3 .def_791)))
(let ((.def_807 (<= .def_792 0.0 )))
(let ((.def_808 (not .def_807)))
(let ((.def_827 (or .def_808 .def_809)))
(let ((.def_793 (<= 0.0 .def_792)))
(let ((.def_826 (or .def_793 .def_796)))
(let ((.def_828 (and .def_826 .def_827)))
(let ((.def_829 (or .def_127 .def_828)))
(let ((.def_794 (not .def_793)))
(let ((.def_823 (or .def_794 .def_795)))
(let ((.def_822 (or .def_807 .def_810)))
(let ((.def_824 (and .def_822 .def_823)))
(let ((.def_825 (or .def_122 .def_824)))
(let ((.def_830 (and .def_825 .def_829)))
(let ((.def_821 (and .def_793 .def_795)))
(let ((.def_831 (and .def_821 .def_830)))
(let ((.def_848 (or .def_831 .def_847)))
(let ((.def_782 (* b.speed_y__AT3 b.delta__AT3)))
(let ((.def_780 (* b.delta__AT3 b.delta__AT3)))
(let ((.def_781 (* .def_75 .def_780)))
(let ((.def_783 (+ .def_781 .def_782)))
(let ((.def_764 (* (- 1.0) b.x__AT3)))
(let ((.def_765 (* b.x__AT3 .def_764)))
(let ((.def_784 (* (- 1.0) .def_765)))
(let ((.def_787 (+ .def_784 .def_783)))
(let ((.def_788 (+ b.y__AT3 .def_787)))
(let ((.def_801 (<= .def_788 0.0 )))
(let ((.def_815 (not .def_801)))
(let ((.def_799 (<= b.y__AT3 .def_765)))
(let ((.def_816 (or .def_799 .def_815)))
(let ((.def_766 (<= .def_765 b.y__AT3)))
(let ((.def_813 (not .def_766)))
(let ((.def_789 (<= 0.0 .def_788)))
(let ((.def_814 (or .def_789 .def_813)))
(let ((.def_817 (and .def_814 .def_816)))
(let ((.def_811 (or .def_808 .def_810)))
(let ((.def_812 (not .def_811)))
(let ((.def_818 (or .def_812 .def_817)))
(let ((.def_803 (not .def_789)))
(let ((.def_804 (or .def_766 .def_803)))
(let ((.def_800 (not .def_799)))
(let ((.def_802 (or .def_800 .def_801)))
(let ((.def_805 (and .def_802 .def_804)))
(let ((.def_797 (or .def_794 .def_796)))
(let ((.def_798 (not .def_797)))
(let ((.def_806 (or .def_798 .def_805)))
(let ((.def_819 (and .def_806 .def_818)))
(let ((.def_790 (and .def_766 .def_789)))
(let ((.def_820 (and .def_790 .def_819)))
(let ((.def_849 (and .def_820 .def_848)))
(let ((.def_64 (<= b.g__AT0 10.0 )))
(let ((.def_63 (<= 8.0 b.g__AT0)))
(let ((.def_65 (and .def_63 .def_64)))
(let ((.def_850 (and .def_65 .def_849)))
(let ((.def_453 (not b.counter.0__AT2)))
(let ((.def_443 (not b.counter.1__AT2)))
(let ((.def_771 (and .def_443 .def_453)))
(let ((.def_775 (or b.counter.3__AT2 .def_771)))
(let ((.def_772 (or b.counter.2__AT2 .def_771)))
(let ((.def_448 (not b.counter.2__AT2)))
(let ((.def_770 (or .def_443 .def_448)))
(let ((.def_773 (and .def_770 .def_772)))
(let ((.def_462 (not b.counter.3__AT2)))
(let ((.def_774 (or .def_462 .def_773)))
(let ((.def_776 (and .def_774 .def_775)))
(let ((.def_767 (and .def_65 .def_766)))
(let ((.def_761 (not b.EVENT.0__AT3)))
(let ((.def_759 (not b.EVENT.1__AT3)))
(let ((.def_762 (or .def_759 .def_761)))
(let ((.def_9 (not b.counter.0__AT3)))
(let ((.def_6 (not b.counter.1__AT3)))
(let ((.def_752 (or .def_6 .def_9)))
(let ((.def_756 (or b.counter.3__AT3 .def_752)))
(let ((.def_753 (or b.counter.2__AT3 .def_752)))
(let ((.def_4 (not b.counter.2__AT3)))
(let ((.def_751 (or .def_4 .def_9)))
(let ((.def_754 (and .def_751 .def_753)))
(let ((.def_14 (not b.counter.3__AT3)))
(let ((.def_755 (or .def_14 .def_754)))
(let ((.def_757 (and .def_755 .def_756)))
(let ((.def_763 (and .def_757 .def_762)))
(let ((.def_768 (and .def_763 .def_767)))
(let ((.def_746 (<= 0.0 b.delta__AT2)))
(let ((.def_533 (not b.EVENT.0__AT2)))
(let ((.def_531 (not b.EVENT.1__AT2)))
(let ((.def_624 (and .def_531 .def_533)))
(let ((.def_626 (not .def_624)))
(let ((.def_747 (or .def_626 .def_746)))
(let ((.def_748 (or b.EVENT.1__AT2 .def_747)))
(let ((.def_661 (= b.bool_atom__AT2 b.bool_atom__AT3)))
(let ((.def_657 (= b.counter.0__AT3 b.counter.0__AT2)))
(let ((.def_655 (= b.counter.1__AT3 b.counter.1__AT2)))
(let ((.def_653 (= b.counter.2__AT3 b.counter.2__AT2)))
(let ((.def_652 (= b.counter.3__AT3 b.counter.3__AT2)))
(let ((.def_654 (and .def_652 .def_653)))
(let ((.def_656 (and .def_654 .def_655)))
(let ((.def_658 (and .def_656 .def_657)))
(let ((.def_742 (and .def_658 .def_661)))
(let ((.def_743 (or .def_626 .def_742)))
(let ((.def_744 (or b.EVENT.1__AT2 .def_743)))
(let ((.def_731 (* .def_72 b.delta__AT2)))
(let ((.def_732 (* (- 1.0) b.speed_y__AT3)))
(let ((.def_735 (+ .def_732 .def_731)))
(let ((.def_736 (+ b.speed_y__AT2 .def_735)))
(let ((.def_737 (= .def_736 0.0 )))
(let ((.def_722 (* (- 1.0) b.y__AT3)))
(let ((.def_554 (* b.speed_y__AT2 b.delta__AT2)))
(let ((.def_726 (+ .def_554 .def_722)))
(let ((.def_552 (* b.delta__AT2 b.delta__AT2)))
(let ((.def_553 (* .def_75 .def_552)))
(let ((.def_727 (+ .def_553 .def_726)))
(let ((.def_728 (+ b.y__AT2 .def_727)))
(let ((.def_729 (= .def_728 0.0 )))
(let ((.def_644 (= b.x__AT2 b.x__AT3)))
(let ((.def_730 (and .def_644 .def_729)))
(let ((.def_738 (and .def_730 .def_737)))
(let ((.def_739 (or .def_626 .def_738)))
(let ((.def_647 (= b.y__AT2 b.y__AT3)))
(let ((.def_717 (and .def_644 .def_647)))
(let ((.def_650 (= b.speed_y__AT2 b.speed_y__AT3)))
(let ((.def_718 (and .def_650 .def_717)))
(let ((.def_714 (= b.delta__AT2 0.0 )))
(let ((.def_715 (and .def_624 .def_714)))
(let ((.def_716 (not .def_715)))
(let ((.def_719 (or .def_716 .def_718)))
(let ((.def_720 (or b.EVENT.1__AT2 .def_719)))
(let ((.def_707 (and .def_650 .def_658)))
(let ((.def_708 (or b.bool_atom__AT2 .def_707)))
(let ((.def_683 (or .def_9 b.counter.0__AT2)))
(let ((.def_682 (or b.counter.0__AT3 .def_453)))
(let ((.def_684 (and .def_682 .def_683)))
(let ((.def_685 (and .def_6 .def_684)))
(let ((.def_686 (or b.counter.1__AT2 .def_685)))
(let ((.def_681 (or b.counter.1__AT3 .def_443)))
(let ((.def_687 (and .def_681 .def_686)))
(let ((.def_698 (and .def_4 .def_687)))
(let ((.def_699 (or b.counter.2__AT2 .def_698)))
(let ((.def_693 (and .def_6 .def_453)))
(let ((.def_694 (or b.counter.1__AT2 .def_693)))
(let ((.def_695 (and .def_681 .def_694)))
(let ((.def_696 (and b.counter.2__AT3 .def_695)))
(let ((.def_697 (or .def_448 .def_696)))
(let ((.def_700 (and .def_697 .def_699)))
(let ((.def_701 (and b.counter.3__AT3 .def_700)))
(let ((.def_702 (or b.counter.3__AT2 .def_701)))
(let ((.def_688 (and b.counter.2__AT3 .def_687)))
(let ((.def_689 (or b.counter.2__AT2 .def_688)))
(let ((.def_677 (or b.counter.1__AT3 b.counter.1__AT2)))
(let ((.def_675 (and .def_6 b.counter.0__AT3)))
(let ((.def_676 (or .def_443 .def_675)))
(let ((.def_678 (and .def_676 .def_677)))
(let ((.def_679 (and .def_4 .def_678)))
(let ((.def_680 (or .def_448 .def_679)))
(let ((.def_690 (and .def_680 .def_689)))
(let ((.def_691 (and .def_14 .def_690)))
(let ((.def_692 (or .def_462 .def_691)))
(let ((.def_703 (and .def_692 .def_702)))
(let ((.def_672 (* b.speed_y__AT3 b.speed_y__AT3)))
(let ((.def_440 (* b.speed_y__AT2 b.speed_y__AT2)))
(let ((.def_673 (= .def_440 .def_672)))
(let ((.def_670 (+ b.speed_y__AT2 b.speed_y__AT3)))
(let ((.def_671 (= .def_670 0.0 )))
(let ((.def_674 (and .def_671 .def_673)))
(let ((.def_704 (and .def_674 .def_703)))
(let ((.def_669 (not b.bool_atom__AT2)))
(let ((.def_705 (or .def_669 .def_704)))
(let ((.def_536 (* (- 1.0) b.x__AT2)))
(let ((.def_537 (* b.x__AT2 .def_536)))
(let ((.def_666 (= b.y__AT2 .def_537)))
(let ((.def_567 (<= 0.0 b.speed_y__AT2)))
(let ((.def_568 (not .def_567)))
(let ((.def_667 (and .def_568 .def_666)))
(let ((.def_668 (= b.bool_atom__AT2 .def_667)))
(let ((.def_706 (and .def_668 .def_705)))
(let ((.def_709 (and .def_706 .def_708)))
(let ((.def_710 (and .def_644 .def_709)))
(let ((.def_711 (and .def_647 .def_710)))
(let ((.def_712 (or .def_624 .def_711)))
(let ((.def_713 (or b.EVENT.1__AT2 .def_712)))
(let ((.def_721 (and .def_713 .def_720)))
(let ((.def_740 (and .def_721 .def_739)))
(let ((.def_631 (= b.time__AT2 b.time__AT3)))
(let ((.def_645 (and .def_631 .def_644)))
(let ((.def_648 (and .def_645 .def_647)))
(let ((.def_651 (and .def_648 .def_650)))
(let ((.def_659 (and .def_651 .def_658)))
(let ((.def_662 (and .def_659 .def_661)))
(let ((.def_663 (or .def_531 .def_662)))
(let ((.def_634 (* (- 1.0) b.time__AT3)))
(let ((.def_637 (+ b.delta__AT2 .def_634)))
(let ((.def_638 (+ b.time__AT2 .def_637)))
(let ((.def_639 (= .def_638 0.0 )))
(let ((.def_640 (or .def_626 .def_639)))
(let ((.def_641 (or b.EVENT.1__AT2 .def_640)))
(let ((.def_632 (or .def_624 .def_631)))
(let ((.def_633 (or b.EVENT.1__AT2 .def_632)))
(let ((.def_642 (and .def_633 .def_641)))
(let ((.def_664 (and .def_642 .def_663)))
(let ((.def_628 (= .def_626 b.event_is_timed__AT3)))
(let ((.def_625 (= b.event_is_timed__AT2 .def_624)))
(let ((.def_629 (and .def_625 .def_628)))
(let ((.def_665 (and .def_629 .def_664)))
(let ((.def_741 (and .def_665 .def_740)))
(let ((.def_745 (and .def_741 .def_744)))
(let ((.def_749 (and .def_745 .def_748)))
(let ((.def_750 (and .def_531 .def_749)))
(let ((.def_769 (and .def_750 .def_768)))
(let ((.def_777 (and .def_769 .def_776)))
(let ((.def_604 (* .def_131 b.delta__AT2)))
(let ((.def_607 (<= .def_604 b.speed_y__AT2)))
(let ((.def_614 (not .def_607)))
(let ((.def_615 (or .def_567 .def_614)))
(let ((.def_605 (<= b.speed_y__AT2 .def_604)))
(let ((.def_581 (<= b.speed_y__AT2 0.0 )))
(let ((.def_582 (not .def_581)))
(let ((.def_613 (or .def_582 .def_605)))
(let ((.def_616 (and .def_613 .def_615)))
(let ((.def_617 (or .def_122 .def_616)))
(let ((.def_609 (not .def_605)))
(let ((.def_610 (or .def_581 .def_609)))
(let ((.def_608 (or .def_568 .def_607)))
(let ((.def_611 (and .def_608 .def_610)))
(let ((.def_612 (or .def_127 .def_611)))
(let ((.def_618 (and .def_612 .def_617)))
(let ((.def_606 (and .def_581 .def_605)))
(let ((.def_619 (and .def_606 .def_618)))
(let ((.def_563 (* .def_87 b.delta__AT2)))
(let ((.def_564 (+ b.speed_y__AT2 .def_563)))
(let ((.def_579 (<= .def_564 0.0 )))
(let ((.def_580 (not .def_579)))
(let ((.def_599 (or .def_580 .def_581)))
(let ((.def_565 (<= 0.0 .def_564)))
(let ((.def_598 (or .def_565 .def_568)))
(let ((.def_600 (and .def_598 .def_599)))
(let ((.def_601 (or .def_127 .def_600)))
(let ((.def_566 (not .def_565)))
(let ((.def_595 (or .def_566 .def_567)))
(let ((.def_594 (or .def_579 .def_582)))
(let ((.def_596 (and .def_594 .def_595)))
(let ((.def_597 (or .def_122 .def_596)))
(let ((.def_602 (and .def_597 .def_601)))
(let ((.def_593 (and .def_565 .def_567)))
(let ((.def_603 (and .def_593 .def_602)))
(let ((.def_620 (or .def_603 .def_619)))
(let ((.def_555 (+ .def_553 .def_554)))
(let ((.def_556 (* (- 1.0) .def_537)))
(let ((.def_559 (+ .def_556 .def_555)))
(let ((.def_560 (+ b.y__AT2 .def_559)))
(let ((.def_573 (<= .def_560 0.0 )))
(let ((.def_587 (not .def_573)))
(let ((.def_571 (<= b.y__AT2 .def_537)))
(let ((.def_588 (or .def_571 .def_587)))
(let ((.def_538 (<= .def_537 b.y__AT2)))
(let ((.def_585 (not .def_538)))
(let ((.def_561 (<= 0.0 .def_560)))
(let ((.def_586 (or .def_561 .def_585)))
(let ((.def_589 (and .def_586 .def_588)))
(let ((.def_583 (or .def_580 .def_582)))
(let ((.def_584 (not .def_583)))
(let ((.def_590 (or .def_584 .def_589)))
(let ((.def_575 (not .def_561)))
(let ((.def_576 (or .def_538 .def_575)))
(let ((.def_572 (not .def_571)))
(let ((.def_574 (or .def_572 .def_573)))
(let ((.def_577 (and .def_574 .def_576)))
(let ((.def_569 (or .def_566 .def_568)))
(let ((.def_570 (not .def_569)))
(let ((.def_578 (or .def_570 .def_577)))
(let ((.def_591 (and .def_578 .def_590)))
(let ((.def_562 (and .def_538 .def_561)))
(let ((.def_592 (and .def_562 .def_591)))
(let ((.def_621 (and .def_592 .def_620)))
(let ((.def_622 (and .def_65 .def_621)))
(let ((.def_219 (not b.counter.0__AT1)))
(let ((.def_209 (not b.counter.1__AT1)))
(let ((.def_543 (and .def_209 .def_219)))
(let ((.def_547 (or b.counter.3__AT1 .def_543)))
(let ((.def_544 (or b.counter.2__AT1 .def_543)))
(let ((.def_214 (not b.counter.2__AT1)))
(let ((.def_542 (or .def_209 .def_214)))
(let ((.def_545 (and .def_542 .def_544)))
(let ((.def_228 (not b.counter.3__AT1)))
(let ((.def_546 (or .def_228 .def_545)))
(let ((.def_548 (and .def_546 .def_547)))
(let ((.def_539 (and .def_65 .def_538)))
(let ((.def_534 (or .def_531 .def_533)))
(let ((.def_524 (or .def_443 .def_453)))
(let ((.def_528 (or b.counter.3__AT2 .def_524)))
(let ((.def_525 (or b.counter.2__AT2 .def_524)))
(let ((.def_523 (or .def_448 .def_453)))
(let ((.def_526 (and .def_523 .def_525)))
(let ((.def_527 (or .def_462 .def_526)))
(let ((.def_529 (and .def_527 .def_528)))
(let ((.def_535 (and .def_529 .def_534)))
(let ((.def_540 (and .def_535 .def_539)))
(let ((.def_518 (<= 0.0 b.delta__AT1)))
(let ((.def_298 (not b.EVENT.0__AT1)))
(let ((.def_296 (not b.EVENT.1__AT1)))
(let ((.def_388 (and .def_296 .def_298)))
(let ((.def_390 (not .def_388)))
(let ((.def_519 (or .def_390 .def_518)))
(let ((.def_520 (or b.EVENT.1__AT1 .def_519)))
(let ((.def_429 (= b.bool_atom__AT1 b.bool_atom__AT2)))
(let ((.def_425 (= b.counter.0__AT1 b.counter.0__AT2)))
(let ((.def_422 (= b.counter.1__AT1 b.counter.1__AT2)))
(let ((.def_419 (= b.counter.2__AT1 b.counter.2__AT2)))
(let ((.def_417 (= b.counter.3__AT1 b.counter.3__AT2)))
(let ((.def_420 (and .def_417 .def_419)))
(let ((.def_423 (and .def_420 .def_422)))
(let ((.def_426 (and .def_423 .def_425)))
(let ((.def_514 (and .def_426 .def_429)))
(let ((.def_515 (or .def_390 .def_514)))
(let ((.def_516 (or b.EVENT.1__AT1 .def_515)))
(let ((.def_503 (* .def_72 b.delta__AT1)))
(let ((.def_504 (* (- 1.0) b.speed_y__AT2)))
(let ((.def_507 (+ .def_504 .def_503)))
(let ((.def_508 (+ b.speed_y__AT1 .def_507)))
(let ((.def_509 (= .def_508 0.0 )))
(let ((.def_494 (* (- 1.0) b.y__AT2)))
(let ((.def_318 (* b.speed_y__AT1 b.delta__AT1)))
(let ((.def_498 (+ .def_318 .def_494)))
(let ((.def_316 (* b.delta__AT1 b.delta__AT1)))
(let ((.def_317 (* .def_75 .def_316)))
(let ((.def_499 (+ .def_317 .def_498)))
(let ((.def_500 (+ b.y__AT1 .def_499)))
(let ((.def_501 (= .def_500 0.0 )))
(let ((.def_408 (= b.x__AT1 b.x__AT2)))
(let ((.def_502 (and .def_408 .def_501)))
(let ((.def_510 (and .def_502 .def_509)))
(let ((.def_511 (or .def_390 .def_510)))
(let ((.def_411 (= b.y__AT1 b.y__AT2)))
(let ((.def_489 (and .def_408 .def_411)))
(let ((.def_414 (= b.speed_y__AT1 b.speed_y__AT2)))
(let ((.def_490 (and .def_414 .def_489)))
(let ((.def_486 (= b.delta__AT1 0.0 )))
(let ((.def_487 (and .def_388 .def_486)))
(let ((.def_488 (not .def_487)))
(let ((.def_491 (or .def_488 .def_490)))
(let ((.def_492 (or b.EVENT.1__AT1 .def_491)))
(let ((.def_479 (and .def_414 .def_426)))
(let ((.def_480 (or b.bool_atom__AT1 .def_479)))
(let ((.def_454 (or b.counter.0__AT1 .def_453)))
(let ((.def_452 (or .def_219 b.counter.0__AT2)))
(let ((.def_455 (and .def_452 .def_454)))
(let ((.def_456 (and .def_443 .def_455)))
(let ((.def_457 (or b.counter.1__AT1 .def_456)))
(let ((.def_451 (or .def_209 b.counter.1__AT2)))
(let ((.def_458 (and .def_451 .def_457)))
(let ((.def_470 (and .def_448 .def_458)))
(let ((.def_471 (or b.counter.2__AT1 .def_470)))
(let ((.def_465 (and .def_219 .def_443)))
(let ((.def_466 (or b.counter.1__AT1 .def_465)))
(let ((.def_467 (and .def_451 .def_466)))
(let ((.def_468 (and b.counter.2__AT2 .def_467)))
(let ((.def_469 (or .def_214 .def_468)))
(let ((.def_472 (and .def_469 .def_471)))
(let ((.def_473 (and b.counter.3__AT2 .def_472)))
(let ((.def_474 (or b.counter.3__AT1 .def_473)))
(let ((.def_459 (and b.counter.2__AT2 .def_458)))
(let ((.def_460 (or b.counter.2__AT1 .def_459)))
(let ((.def_446 (or b.counter.1__AT1 b.counter.1__AT2)))
(let ((.def_444 (and b.counter.0__AT2 .def_443)))
(let ((.def_445 (or .def_209 .def_444)))
(let ((.def_447 (and .def_445 .def_446)))
(let ((.def_449 (and .def_447 .def_448)))
(let ((.def_450 (or .def_214 .def_449)))
(let ((.def_461 (and .def_450 .def_460)))
(let ((.def_463 (and .def_461 .def_462)))
(let ((.def_464 (or .def_228 .def_463)))
(let ((.def_475 (and .def_464 .def_474)))
(let ((.def_205 (* b.speed_y__AT1 b.speed_y__AT1)))
(let ((.def_441 (= .def_205 .def_440)))
(let ((.def_438 (+ b.speed_y__AT1 b.speed_y__AT2)))
(let ((.def_439 (= .def_438 0.0 )))
(let ((.def_442 (and .def_439 .def_441)))
(let ((.def_476 (and .def_442 .def_475)))
(let ((.def_437 (not b.bool_atom__AT1)))
(let ((.def_477 (or .def_437 .def_476)))
(let ((.def_301 (* (- 1.0) b.x__AT1)))
(let ((.def_302 (* b.x__AT1 .def_301)))
(let ((.def_434 (= b.y__AT1 .def_302)))
(let ((.def_331 (<= 0.0 b.speed_y__AT1)))
(let ((.def_332 (not .def_331)))
(let ((.def_435 (and .def_332 .def_434)))
(let ((.def_436 (= b.bool_atom__AT1 .def_435)))
(let ((.def_478 (and .def_436 .def_477)))
(let ((.def_481 (and .def_478 .def_480)))
(let ((.def_482 (and .def_408 .def_481)))
(let ((.def_483 (and .def_411 .def_482)))
(let ((.def_484 (or .def_388 .def_483)))
(let ((.def_485 (or b.EVENT.1__AT1 .def_484)))
(let ((.def_493 (and .def_485 .def_492)))
(let ((.def_512 (and .def_493 .def_511)))
(let ((.def_395 (= b.time__AT1 b.time__AT2)))
(let ((.def_409 (and .def_395 .def_408)))
(let ((.def_412 (and .def_409 .def_411)))
(let ((.def_415 (and .def_412 .def_414)))
(let ((.def_427 (and .def_415 .def_426)))
(let ((.def_430 (and .def_427 .def_429)))
(let ((.def_431 (or .def_296 .def_430)))
(let ((.def_398 (* (- 1.0) b.time__AT2)))
(let ((.def_401 (+ b.delta__AT1 .def_398)))
(let ((.def_402 (+ b.time__AT1 .def_401)))
(let ((.def_403 (= .def_402 0.0 )))
(let ((.def_404 (or .def_390 .def_403)))
(let ((.def_405 (or b.EVENT.1__AT1 .def_404)))
(let ((.def_396 (or .def_388 .def_395)))
(let ((.def_397 (or b.EVENT.1__AT1 .def_396)))
(let ((.def_406 (and .def_397 .def_405)))
(let ((.def_432 (and .def_406 .def_431)))
(let ((.def_392 (= .def_390 b.event_is_timed__AT2)))
(let ((.def_389 (= b.event_is_timed__AT1 .def_388)))
(let ((.def_393 (and .def_389 .def_392)))
(let ((.def_433 (and .def_393 .def_432)))
(let ((.def_513 (and .def_433 .def_512)))
(let ((.def_517 (and .def_513 .def_516)))
(let ((.def_521 (and .def_517 .def_520)))
(let ((.def_522 (and .def_296 .def_521)))
(let ((.def_541 (and .def_522 .def_540)))
(let ((.def_549 (and .def_541 .def_548)))
(let ((.def_368 (* .def_131 b.delta__AT1)))
(let ((.def_371 (<= .def_368 b.speed_y__AT1)))
(let ((.def_378 (not .def_371)))
(let ((.def_379 (or .def_331 .def_378)))
(let ((.def_369 (<= b.speed_y__AT1 .def_368)))
(let ((.def_345 (<= b.speed_y__AT1 0.0 )))
(let ((.def_346 (not .def_345)))
(let ((.def_377 (or .def_346 .def_369)))
(let ((.def_380 (and .def_377 .def_379)))
(let ((.def_381 (or .def_122 .def_380)))
(let ((.def_373 (not .def_369)))
(let ((.def_374 (or .def_345 .def_373)))
(let ((.def_372 (or .def_332 .def_371)))
(let ((.def_375 (and .def_372 .def_374)))
(let ((.def_376 (or .def_127 .def_375)))
(let ((.def_382 (and .def_376 .def_381)))
(let ((.def_370 (and .def_345 .def_369)))
(let ((.def_383 (and .def_370 .def_382)))
(let ((.def_327 (* .def_87 b.delta__AT1)))
(let ((.def_328 (+ b.speed_y__AT1 .def_327)))
(let ((.def_343 (<= .def_328 0.0 )))
(let ((.def_344 (not .def_343)))
(let ((.def_363 (or .def_344 .def_345)))
(let ((.def_329 (<= 0.0 .def_328)))
(let ((.def_362 (or .def_329 .def_332)))
(let ((.def_364 (and .def_362 .def_363)))
(let ((.def_365 (or .def_127 .def_364)))
(let ((.def_330 (not .def_329)))
(let ((.def_359 (or .def_330 .def_331)))
(let ((.def_358 (or .def_343 .def_346)))
(let ((.def_360 (and .def_358 .def_359)))
(let ((.def_361 (or .def_122 .def_360)))
(let ((.def_366 (and .def_361 .def_365)))
(let ((.def_357 (and .def_329 .def_331)))
(let ((.def_367 (and .def_357 .def_366)))
(let ((.def_384 (or .def_367 .def_383)))
(let ((.def_319 (+ .def_317 .def_318)))
(let ((.def_320 (* (- 1.0) .def_302)))
(let ((.def_323 (+ .def_320 .def_319)))
(let ((.def_324 (+ b.y__AT1 .def_323)))
(let ((.def_337 (<= .def_324 0.0 )))
(let ((.def_351 (not .def_337)))
(let ((.def_335 (<= b.y__AT1 .def_302)))
(let ((.def_352 (or .def_335 .def_351)))
(let ((.def_303 (<= .def_302 b.y__AT1)))
(let ((.def_349 (not .def_303)))
(let ((.def_325 (<= 0.0 .def_324)))
(let ((.def_350 (or .def_325 .def_349)))
(let ((.def_353 (and .def_350 .def_352)))
(let ((.def_347 (or .def_344 .def_346)))
(let ((.def_348 (not .def_347)))
(let ((.def_354 (or .def_348 .def_353)))
(let ((.def_339 (not .def_325)))
(let ((.def_340 (or .def_303 .def_339)))
(let ((.def_336 (not .def_335)))
(let ((.def_338 (or .def_336 .def_337)))
(let ((.def_341 (and .def_338 .def_340)))
(let ((.def_333 (or .def_330 .def_332)))
(let ((.def_334 (not .def_333)))
(let ((.def_342 (or .def_334 .def_341)))
(let ((.def_355 (and .def_342 .def_354)))
(let ((.def_326 (and .def_303 .def_325)))
(let ((.def_356 (and .def_326 .def_355)))
(let ((.def_385 (and .def_356 .def_384)))
(let ((.def_386 (and .def_65 .def_385)))
(let ((.def_34 (not b.counter.0__AT0)))
(let ((.def_32 (not b.counter.1__AT0)))
(let ((.def_35 (and .def_32 .def_34)))
(let ((.def_311 (or .def_35 b.counter.3__AT0)))
(let ((.def_308 (or .def_35 b.counter.2__AT0)))
(let ((.def_37 (not b.counter.2__AT0)))
(let ((.def_307 (or .def_32 .def_37)))
(let ((.def_309 (and .def_307 .def_308)))
(let ((.def_40 (not b.counter.3__AT0)))
(let ((.def_310 (or .def_40 .def_309)))
(let ((.def_312 (and .def_310 .def_311)))
(let ((.def_304 (and .def_65 .def_303)))
(let ((.def_299 (or .def_296 .def_298)))
(let ((.def_289 (or .def_209 .def_219)))
(let ((.def_293 (or b.counter.3__AT1 .def_289)))
(let ((.def_290 (or b.counter.2__AT1 .def_289)))
(let ((.def_288 (or .def_214 .def_219)))
(let ((.def_291 (and .def_288 .def_290)))
(let ((.def_292 (or .def_228 .def_291)))
(let ((.def_294 (and .def_292 .def_293)))
(let ((.def_300 (and .def_294 .def_299)))
(let ((.def_305 (and .def_300 .def_304)))
(let ((.def_283 (<= 0.0 b.delta__AT0)))
(let ((.def_53 (not b.EVENT.0__AT0)))
(let ((.def_51 (not b.EVENT.1__AT0)))
(let ((.def_152 (and .def_51 .def_53)))
(let ((.def_154 (not .def_152)))
(let ((.def_284 (or .def_154 .def_283)))
(let ((.def_285 (or b.EVENT.1__AT0 .def_284)))
(let ((.def_194 (= b.bool_atom__AT0 b.bool_atom__AT1)))
(let ((.def_189 (= b.counter.0__AT0 b.counter.0__AT1)))
(let ((.def_186 (= b.counter.1__AT0 b.counter.1__AT1)))
(let ((.def_183 (= b.counter.2__AT0 b.counter.2__AT1)))
(let ((.def_181 (= b.counter.3__AT0 b.counter.3__AT1)))
(let ((.def_184 (and .def_181 .def_183)))
(let ((.def_187 (and .def_184 .def_186)))
(let ((.def_190 (and .def_187 .def_189)))
(let ((.def_279 (and .def_190 .def_194)))
(let ((.def_280 (or .def_154 .def_279)))
(let ((.def_281 (or b.EVENT.1__AT0 .def_280)))
(let ((.def_268 (* b.delta__AT0 .def_72)))
(let ((.def_269 (* (- 1.0) b.speed_y__AT1)))
(let ((.def_272 (+ .def_269 .def_268)))
(let ((.def_273 (+ b.speed_y__AT0 .def_272)))
(let ((.def_274 (= .def_273 0.0 )))
(let ((.def_260 (* (- 1.0) b.y__AT1)))
(let ((.def_78 (* b.delta__AT0 b.speed_y__AT0)))
(let ((.def_263 (+ .def_78 .def_260)))
(let ((.def_71 (* b.delta__AT0 b.delta__AT0)))
(let ((.def_76 (* .def_71 .def_75)))
(let ((.def_264 (+ .def_76 .def_263)))
(let ((.def_265 (+ b.y__AT0 .def_264)))
(let ((.def_266 (= .def_265 0.0 )))
(let ((.def_172 (= b.x__AT0 b.x__AT1)))
(let ((.def_267 (and .def_172 .def_266)))
(let ((.def_275 (and .def_267 .def_274)))
(let ((.def_276 (or .def_154 .def_275)))
(let ((.def_175 (= b.y__AT0 b.y__AT1)))
(let ((.def_255 (and .def_172 .def_175)))
(let ((.def_178 (= b.speed_y__AT0 b.speed_y__AT1)))
(let ((.def_256 (and .def_178 .def_255)))
(let ((.def_252 (= b.delta__AT0 0.0 )))
(let ((.def_253 (and .def_152 .def_252)))
(let ((.def_254 (not .def_253)))
(let ((.def_257 (or .def_254 .def_256)))
(let ((.def_258 (or b.EVENT.1__AT0 .def_257)))
(let ((.def_245 (and .def_178 .def_190)))
(let ((.def_246 (or b.bool_atom__AT0 .def_245)))
(let ((.def_220 (or b.counter.0__AT0 .def_219)))
(let ((.def_218 (or .def_34 b.counter.0__AT1)))
(let ((.def_221 (and .def_218 .def_220)))
(let ((.def_222 (and .def_209 .def_221)))
(let ((.def_223 (or b.counter.1__AT0 .def_222)))
(let ((.def_217 (or .def_32 b.counter.1__AT1)))
(let ((.def_224 (and .def_217 .def_223)))
(let ((.def_236 (and .def_214 .def_224)))
(let ((.def_237 (or b.counter.2__AT0 .def_236)))
(let ((.def_231 (and .def_34 .def_209)))
(let ((.def_232 (or b.counter.1__AT0 .def_231)))
(let ((.def_233 (and .def_217 .def_232)))
(let ((.def_234 (and b.counter.2__AT1 .def_233)))
(let ((.def_235 (or .def_37 .def_234)))
(let ((.def_238 (and .def_235 .def_237)))
(let ((.def_239 (and b.counter.3__AT1 .def_238)))
(let ((.def_240 (or b.counter.3__AT0 .def_239)))
(let ((.def_225 (and b.counter.2__AT1 .def_224)))
(let ((.def_226 (or b.counter.2__AT0 .def_225)))
(let ((.def_212 (or b.counter.1__AT0 b.counter.1__AT1)))
(let ((.def_210 (and b.counter.0__AT1 .def_209)))
(let ((.def_211 (or .def_32 .def_210)))
(let ((.def_213 (and .def_211 .def_212)))
(let ((.def_215 (and .def_213 .def_214)))
(let ((.def_216 (or .def_37 .def_215)))
(let ((.def_227 (and .def_216 .def_226)))
(let ((.def_229 (and .def_227 .def_228)))
(let ((.def_230 (or .def_40 .def_229)))
(let ((.def_241 (and .def_230 .def_240)))
(let ((.def_206 (* b.speed_y__AT0 b.speed_y__AT0)))
(let ((.def_207 (= .def_205 .def_206)))
(let ((.def_203 (+ b.speed_y__AT0 b.speed_y__AT1)))
(let ((.def_204 (= .def_203 0.0 )))
(let ((.def_208 (and .def_204 .def_207)))
(let ((.def_242 (and .def_208 .def_241)))
(let ((.def_202 (not b.bool_atom__AT0)))
(let ((.def_243 (or .def_202 .def_242)))
(let ((.def_58 (* (- 1.0) b.x__AT0)))
(let ((.def_59 (* b.x__AT0 .def_58)))
(let ((.def_199 (= b.y__AT0 .def_59)))
(let ((.def_92 (<= 0.0 b.speed_y__AT0)))
(let ((.def_93 (not .def_92)))
(let ((.def_200 (and .def_93 .def_199)))
(let ((.def_201 (= b.bool_atom__AT0 .def_200)))
(let ((.def_244 (and .def_201 .def_243)))
(let ((.def_247 (and .def_244 .def_246)))
(let ((.def_248 (and .def_172 .def_247)))
(let ((.def_249 (and .def_175 .def_248)))
(let ((.def_250 (or .def_152 .def_249)))
(let ((.def_251 (or b.EVENT.1__AT0 .def_250)))
(let ((.def_259 (and .def_251 .def_258)))
(let ((.def_277 (and .def_259 .def_276)))
(let ((.def_159 (= b.time__AT0 b.time__AT1)))
(let ((.def_173 (and .def_159 .def_172)))
(let ((.def_176 (and .def_173 .def_175)))
(let ((.def_179 (and .def_176 .def_178)))
(let ((.def_191 (and .def_179 .def_190)))
(let ((.def_195 (and .def_191 .def_194)))
(let ((.def_196 (or .def_51 .def_195)))
(let ((.def_162 (* (- 1.0) b.time__AT1)))
(let ((.def_165 (+ b.delta__AT0 .def_162)))
(let ((.def_166 (+ b.time__AT0 .def_165)))
(let ((.def_167 (= .def_166 0.0 )))
(let ((.def_168 (or .def_154 .def_167)))
(let ((.def_169 (or b.EVENT.1__AT0 .def_168)))
(let ((.def_160 (or .def_152 .def_159)))
(let ((.def_161 (or b.EVENT.1__AT0 .def_160)))
(let ((.def_170 (and .def_161 .def_169)))
(let ((.def_197 (and .def_170 .def_196)))
(let ((.def_156 (= .def_154 b.event_is_timed__AT1)))
(let ((.def_153 (= b.event_is_timed__AT0 .def_152)))
(let ((.def_157 (and .def_153 .def_156)))
(let ((.def_198 (and .def_157 .def_197)))
(let ((.def_278 (and .def_198 .def_277)))
(let ((.def_282 (and .def_278 .def_281)))
(let ((.def_286 (and .def_282 .def_285)))
(let ((.def_287 (and .def_51 .def_286)))
(let ((.def_306 (and .def_287 .def_305)))
(let ((.def_313 (and .def_306 .def_312)))
(let ((.def_132 (* b.delta__AT0 .def_131)))
(let ((.def_135 (<= .def_132 b.speed_y__AT0)))
(let ((.def_142 (not .def_135)))
(let ((.def_143 (or .def_92 .def_142)))
(let ((.def_133 (<= b.speed_y__AT0 .def_132)))
(let ((.def_106 (<= b.speed_y__AT0 0.0 )))
(let ((.def_107 (not .def_106)))
(let ((.def_141 (or .def_107 .def_133)))
(let ((.def_144 (and .def_141 .def_143)))
(let ((.def_145 (or .def_122 .def_144)))
(let ((.def_137 (not .def_133)))
(let ((.def_138 (or .def_106 .def_137)))
(let ((.def_136 (or .def_93 .def_135)))
(let ((.def_139 (and .def_136 .def_138)))
(let ((.def_140 (or .def_127 .def_139)))
(let ((.def_146 (and .def_140 .def_145)))
(let ((.def_134 (and .def_106 .def_133)))
(let ((.def_147 (and .def_134 .def_146)))
(let ((.def_88 (* b.delta__AT0 .def_87)))
(let ((.def_89 (+ b.speed_y__AT0 .def_88)))
(let ((.def_104 (<= .def_89 0.0 )))
(let ((.def_105 (not .def_104)))
(let ((.def_125 (or .def_105 .def_106)))
(let ((.def_90 (<= 0.0 .def_89)))
(let ((.def_124 (or .def_90 .def_93)))
(let ((.def_126 (and .def_124 .def_125)))
(let ((.def_128 (or .def_126 .def_127)))
(let ((.def_91 (not .def_90)))
(let ((.def_120 (or .def_91 .def_92)))
(let ((.def_119 (or .def_104 .def_107)))
(let ((.def_121 (and .def_119 .def_120)))
(let ((.def_123 (or .def_121 .def_122)))
(let ((.def_129 (and .def_123 .def_128)))
(let ((.def_118 (and .def_90 .def_92)))
(let ((.def_130 (and .def_118 .def_129)))
(let ((.def_148 (or .def_130 .def_147)))
(let ((.def_79 (+ .def_76 .def_78)))
(let ((.def_80 (* (- 1.0) .def_59)))
(let ((.def_83 (+ .def_80 .def_79)))
(let ((.def_84 (+ b.y__AT0 .def_83)))
(let ((.def_98 (<= .def_84 0.0 )))
(let ((.def_112 (not .def_98)))
(let ((.def_96 (<= b.y__AT0 .def_59)))
(let ((.def_113 (or .def_96 .def_112)))
(let ((.def_60 (<= .def_59 b.y__AT0)))
(let ((.def_110 (not .def_60)))
(let ((.def_85 (<= 0.0 .def_84)))
(let ((.def_111 (or .def_85 .def_110)))
(let ((.def_114 (and .def_111 .def_113)))
(let ((.def_108 (or .def_105 .def_107)))
(let ((.def_109 (not .def_108)))
(let ((.def_115 (or .def_109 .def_114)))
(let ((.def_100 (not .def_85)))
(let ((.def_101 (or .def_60 .def_100)))
(let ((.def_97 (not .def_96)))
(let ((.def_99 (or .def_97 .def_98)))
(let ((.def_102 (and .def_99 .def_101)))
(let ((.def_94 (or .def_91 .def_93)))
(let ((.def_95 (not .def_94)))
(let ((.def_103 (or .def_95 .def_102)))
(let ((.def_116 (and .def_103 .def_115)))
(let ((.def_86 (and .def_60 .def_85)))
(let ((.def_117 (and .def_86 .def_116)))
(let ((.def_149 (and .def_117 .def_148)))
(let ((.def_150 (and .def_65 .def_149)))
(let ((.def_66 (and .def_60 .def_65)))
(let ((.def_54 (or .def_51 .def_53)))
(let ((.def_44 (or .def_32 .def_34)))
(let ((.def_48 (or b.counter.3__AT0 .def_44)))
(let ((.def_45 (or b.counter.2__AT0 .def_44)))
(let ((.def_43 (or .def_34 .def_37)))
(let ((.def_46 (and .def_43 .def_45)))
(let ((.def_47 (or .def_40 .def_46)))
(let ((.def_49 (and .def_47 .def_48)))
(let ((.def_55 (and .def_49 .def_54)))
(let ((.def_67 (and .def_55 .def_66)))
(let ((.def_38 (and .def_35 .def_37)))
(let ((.def_41 (and .def_38 .def_40)))
(let ((.def_29 (= b.y__AT0 10.0 )))
(let ((.def_25 (= b.x__AT0 0.0 )))
(let ((.def_21 (= b.time__AT0 0.0 )))
(let ((.def_23 (and .def_21 b.event_is_timed__AT0)))
(let ((.def_26 (and .def_23 .def_25)))
(let ((.def_30 (and .def_26 .def_29)))
(let ((.def_42 (and .def_30 .def_41)))
(let ((.def_68 (and .def_42 .def_67)))
(let ((.def_10 (and .def_6 .def_9)))
(let ((.def_16 (or .def_10 b.counter.3__AT3)))
(let ((.def_11 (or b.counter.2__AT3 .def_10)))
(let ((.def_7 (or .def_4 .def_6)))
(let ((.def_12 (and .def_7 .def_11)))
(let ((.def_15 (or .def_12 .def_14)))
(let ((.def_17 (and .def_15 .def_16)))
(let ((.def_18 (not .def_17)))
(let ((.def_69 (and .def_18 .def_68)))
(let ((.def_151 (and .def_69 .def_150)))
(let ((.def_314 (and .def_151 .def_313)))
(let ((.def_387 (and .def_314 .def_386)))
(let ((.def_550 (and .def_387 .def_549)))
(let ((.def_623 (and .def_550 .def_622)))
(let ((.def_778 (and .def_623 .def_777)))
(let ((.def_851 (and .def_778 .def_850)))
.def_851))))))))))))))))))))))))))))))))))))))))))))))))))))))))))))))))))))))))))))))))))))))))))))))))))))))))))))))))))))))))))))))))))))))))))))))))))))))))))))))))))))))))))))))))))))))))))))))))))))))))))))))))))))))))))))))))))))))))))))))))))))))))))))))))))))))))))))))))))))))))))))))))))))))))))))))))))))))))))))))))))))))))))))))))))))))))))))))))))))))))))))))))))))))))))))))))))))))))))))))))))))))))))))))))))))))))))))))))))))))))))))))))))))))))))))))))))))))))))))))))))))))))))))))))))))))))))))))))))))))))))))))))))))))))))))))))))))))))))))))))))))))))))))))))))))))))))))))))))))))))))))))))))))))))))))))))))))))))))))))))))))))))))))))))))))))))))))))))))))))))))))))))))))))))))))))))))))))))))))))))))))))))))))))))))))))))))))))))))))))))))
(check-sat)
(exit)
